Problem:    ModelGLPK_andrimid
Rows:       36
Columns:    47 (47 integer, 47 binary)
Non-zeros:  335
Status:     INTEGER OPTIMAL
Objective:  number_of_installed_atoms = 35 (MAXimum)

   No.   Row name        Activity     Lower bound   Upper bound
------ ------------    ------------- ------------- -------------
     1 Atom_Owner[a0]
                                   1                           1 
     2 Atom_Owner[a1]
                                   1                           1 
     3 Atom_Owner[a2]
                                   1                           1 
     4 Atom_Owner[a3]
                                   1                           1 
     5 Atom_Owner[a4]
                                   1                           1 
     6 Atom_Owner[a5]
                                   1                           1 
     7 Atom_Owner[a6]
                                   1                           1 
     8 Atom_Owner[a7]
                                   1                           1 
     9 Atom_Owner[a8]
                                   1                           1 
    10 Atom_Owner[a9]
                                   1                           1 
    11 Atom_Owner[a10]
                                   1                           1 
    12 Atom_Owner[a11]
                                   1                           1 
    13 Atom_Owner[a12]
                                   1                           1 
    14 Atom_Owner[a13]
                                   1                           1 
    15 Atom_Owner[a14]
                                   1                           1 
    16 Atom_Owner[a15]
                                   1                           1 
    17 Atom_Owner[a16]
                                   1                           1 
    18 Atom_Owner[a17]
                                   1                           1 
    19 Atom_Owner[a18]
                                   1                           1 
    20 Atom_Owner[a19]
                                   1                           1 
    21 Atom_Owner[a20]
                                   1                           1 
    22 Atom_Owner[a21]
                                   1                           1 
    23 Atom_Owner[a22]
                                   1                           1 
    24 Atom_Owner[a23]
                                   1                           1 
    25 Atom_Owner[a24]
                                   1                           1 
    26 Atom_Owner[a25]
                                   1                           1 
    27 Atom_Owner[a26]
                                   1                           1 
    28 Atom_Owner[a27]
                                   1                           1 
    29 Atom_Owner[a28]
                                   1                           1 
    30 Atom_Owner[a29]
                                   1                           1 
    31 Atom_Owner[a30]
                                   1                           1 
    32 Atom_Owner[a31]
                                   1                           1 
    33 Atom_Owner[a32]
                                   1                           1 
    34 Atom_Owner[a33]
                                   1                           1 
    35 Atom_Owner[a34]
                                   1                           1 
    36 number_of_installed_atoms
                                  35                             

   No. Column name       Activity     Lower bound   Upper bound
------ ------------    ------------- ------------- -------------
     1 install[m0]  *              1             0             1 
     2 install[m1]  *              1             0             1 
     3 install[m2]  *              1             0             1 
     4 install[m3]  *              0             0             1 
     5 install[m4]  *              0             0             1 
     6 install[m5]  *              0             0             1 
     7 install[m6]  *              0             0             1 
     8 install[m7]  *              0             0             1 
     9 install[m8]  *              0             0             1 
    10 install[m9]  *              0             0             1 
    11 install[m10] *              0             0             1 
    12 install[m11] *              0             0             1 
    13 install[m12] *              0             0             1 
    14 install[m13] *              0             0             1 
    15 install[m14] *              0             0             1 
    16 install[m15] *              0             0             1 
    17 install[m16] *              0             0             1 
    18 install[m17] *              0             0             1 
    19 install[m18] *              0             0             1 
    20 install[m19] *              0             0             1 
    21 install[m20] *              0             0             1 
    22 install[m21] *              0             0             1 
    23 install[m22] *              0             0             1 
    24 install[m23] *              0             0             1 
    25 install[m24] *              0             0             1 
    26 install[m25] *              0             0             1 
    27 install[m26] *              0             0             1 
    28 install[m27] *              0             0             1 
    29 install[m28] *              0             0             1 
    30 install[m29] *              0             0             1 
    31 install[m30] *              1             0             1 
    32 install[m31] *              0             0             1 
    33 install[m32] *              0             0             1 
    34 install[m33] *              0             0             1 
    35 install[m34] *              0             0             1 
    36 install[m35] *              0             0             1 
    37 install[m36] *              0             0             1 
    38 install[m37] *              0             0             1 
    39 install[m38] *              0             0             1 
    40 install[m39] *              0             0             1 
    41 install[m40] *              0             0             1 
    42 install[m41] *              0             0             1 
    43 install[m42] *              0             0             1 
    44 install[m43] *              0             0             1 
    45 install[m44] *              0             0             1 
    46 install[m45] *              0             0             1 
    47 install[m46] *              0             0             1 

Integer feasibility conditions:

KKT.PE: max.abs.err = 0.00e+00 on row 0
        max.rel.err = 0.00e+00 on row 0
        High quality

KKT.PB: max.abs.err = 0.00e+00 on row 0
        max.rel.err = 0.00e+00 on row 0
        High quality

End of output
